n = 25; 
m = 9;
    
sx = 
[4, 5, 13, 14, 22, 
 7, 8, 11, 15, 16, 19,
 7, 12, 17, 21,
 4, 5, 10, 11, 16, 21, 22 ];

sy = 
[4, 4, 4, 4, 4,  
 9, 9, 9, 9, 9, 9, 
 17, 17, 17, 17,
 22, 22, 22, 22, 22, 22, 22];

hs = 
[|7, 3, 1, 1, 7, 0, 0, 0, 0
 |1, 1, 2, 2, 1, 1, 0, 0, 0
 |1, 3, 1, 3, 1, 1, 3, 1, 0
 |1, 3, 1, 1, 6, 1, 3, 1, 0
 |1, 3, 1, 5, 2, 1, 3, 1, 0
 |1, 1, 2, 1, 1, 0, 0, 0, 0
 |7, 1, 1, 1, 1, 1, 7, 0, 0
 |3, 3, 0, 0, 0, 0, 0, 0, 0
 |1, 2, 3, 1, 1, 3, 1, 1, 2
 |1, 1, 3, 2, 1, 1, 0, 0, 0
 |4, 1, 4, 2, 1, 2, 0, 0, 0
 |1, 1, 1, 1, 1, 4, 1, 3, 0
 |2, 1, 1, 1, 2, 5, 0, 0, 0
 |3, 2, 2, 6, 3, 1, 0, 0, 0
 |1, 9, 1, 1, 2, 1, 0, 0, 0
 |2, 1, 2, 2, 3, 1, 0, 0, 0
 |3, 1, 1, 1, 1, 5, 1, 0, 0
 |1, 2, 2, 5, 0, 0, 0, 0, 0
 |7, 1, 2, 1, 1, 1, 3, 0, 0
 |1, 1, 2, 1, 2, 2, 1, 0, 0
 |1, 3, 1, 4, 5, 1, 0, 0, 0
 |1, 3, 1, 3, 10, 2, 0, 0, 0
 |1, 3, 1, 1, 6, 6, 0, 0, 0
 |1, 1, 2, 1, 1, 2, 0, 0, 0
 |7, 2, 1, 2, 5, 0, 0, 0, 0|];

vs = 
[|7, 2, 1, 1, 7, 0, 0, 0, 0
 |1, 1, 2, 2, 1, 1, 0, 0, 0
 |1, 3, 1, 3, 1, 3, 1, 3, 1
 |1, 3, 1, 1, 5, 1, 3, 1, 0
 |1, 3, 1, 1, 4, 1, 3, 1, 0
 |1, 1, 1, 2, 1, 1, 0, 0, 0
 |7, 1, 1, 1, 1, 1, 7, 0, 0
 |1, 1, 3, 0, 0, 0, 0, 0, 0
 |2, 1, 2, 1, 8, 2, 1, 0, 0
 |2, 2, 1, 2, 1, 1, 1, 2, 0
 |1, 7, 3, 2, 1, 0, 0, 0, 0
 |1, 2, 3, 1, 1, 1, 1, 1, 0
 |4, 1, 1, 2, 6, 0, 0, 0, 0
 |3, 3, 1, 1, 1, 3, 1, 0, 0
 |1, 2, 5, 2, 2, 0, 0, 0, 0
 |2, 2, 1, 1, 1, 1, 1, 2, 1
 |1, 3, 3, 2, 1, 8, 1, 0, 0
 |6, 2, 1, 0, 0, 0, 0, 0, 0
 |7, 1, 4, 1, 1, 3, 0, 0, 0
 |1, 1, 1, 1, 4, 0, 0, 0, 0
 |1, 3, 1, 3, 7, 1, 0, 0, 0
 |1, 3, 1, 1, 1, 2, 1, 1, 4
 |1, 3, 1, 4, 3, 3, 0, 0, 0
 |1, 1, 2, 2, 2, 6, 1, 0, 0
 |7, 1, 3, 2, 1, 1, 0, 0, 0|];